p cnf 3 91
 1
-1 -4015089358328871764 1 4015089358328871764 8- 0
 4015089358328871764 0
-4015089358328871764 4015089358328871764
-1 -4015089358328871764 1 4015089358328871764 8#!>$$"7<! 0
 1 4015089358328871764
 1 4015089358328871764
-4015089358328871764 4015089358328871764 ) 0
-1 1 (2&(3(5=":$ 8(%<;/#(
-1 -4015089358328871764 1 4015089358328871764
-4015089358328871764 4015089358328871764
 1 0
 1 4015089358328871764 ,=
 1 4015089358328871764 47,:';>1(.;+
-4015089358328871764 4015089358328871764 -7!=1+1/->;#-=.2-%,, 0
 4015089358328871764 0
 4015089358328871764 0
-1 1
-1 -4015089358328871764 1 4015089358328871764 1;1("$0&/
-4015089358328871764 4015089358328871764
-4015089358328871764 -1 1 4015089358328871764  3,.66%%/
 1 0
 4015089358328871764 0
 1
 1 =45)+#
 1 4015089358328871764 $ -##-/#,'3&. ?1=#
-1 1 ;'7<&'9(0=?2 0
-4015089358328871764 -1 1 4015089358328871764 + 444")*/(2+ 
 1 4015089358328871764
-4015089358328871764 1 4015089358328871764 0
